c FILE /home/rafael/Documents/HappySet/MIHS/inputs/happygen/output/graph_scale_free_k5_p0.1_v100_20241127_083837.txt
c SOURCE This is a scale-free graph formed for the happy graph colouring problem.
c DESCRIPTION It was generated using the problem generator of Rhyd Lewis
c
c GRAPH STATS
c Seed                             = -1700744174
c Number of Nodes                  = 100
c Number of colours k              = 5
c Number of pre-assignments        = 10
c Number of links per new node     = 5
c Density                          = 0.0979798
c 
c The degrees of nodes 1 to 100, respectively, are as follows 
c [31, 31, 31, 30, 27, 24, 23, 22, 21, 21, 21, 19, 19, 19, 18, 18, 17, 15, 14, 14, 13, 13, 11, 11, 11, 10, 
c  9, 9, 9, 9, 9, 9, 9, 8, 8, 8, 8, 8, 8, 8, 8, 8, 7, 7, 7, 7, 7, 7, 7, 7, 7, 
c  7, 7, 7, 6, 6, 6, 6, 6, 6, 6, 6, 6, 6, 6, 6, 6, 6, 6, 6, 6, 5, 5, 5, 5, 5, 
c  5, 5, 5, 5, 5, 5, 5, 5, 5, 5, 5, 5, 5, 5, 5, 5, 5, 5, 5, 5, 5, 5, 5, 5] 
c  
p edge 100 485 5
e 1 2
e 1 3
e 1 4
e 1 5
e 1 6
e 1 8
e 1 9
e 1 10
e 1 11
e 1 12
e 1 13
e 1 15
e 1 17
e 1 18
e 1 19
e 1 20
e 1 23
e 1 27
e 1 34
e 1 36
e 1 41
e 1 48
e 1 52
e 1 53
e 1 56
e 1 59
e 1 68
e 1 72
e 1 90
e 1 94
e 1 98
e 2 3
e 2 4
e 2 5
e 2 6
e 2 7
e 2 8
e 2 9
e 2 10
e 2 12
e 2 15
e 2 16
e 2 17
e 2 18
e 2 19
e 2 27
e 2 28
e 2 34
e 2 36
e 2 46
e 2 54
e 2 55
e 2 56
e 2 58
e 2 62
e 2 64
e 2 67
e 2 68
e 2 86
e 2 91
e 2 95
e 3 4
e 3 5
e 3 10
e 3 11
e 3 15
e 3 17
e 3 18
e 3 19
e 3 23
e 3 26
e 3 27
e 3 31
e 3 37
e 3 40
e 3 41
e 3 43
e 3 48
e 3 51
e 3 54
e 3 55
e 3 57
e 3 65
e 3 66
e 3 72
e 3 89
e 3 91
e 3 93
e 3 95
e 3 96
e 4 5
e 4 7
e 4 8
e 4 9
e 4 10
e 4 11
e 4 12
e 4 14
e 4 15
e 4 19
e 4 20
e 4 22
e 4 23
e 4 33
e 4 36
e 4 40
e 4 44
e 4 47
e 4 55
e 4 57
e 4 60
e 4 63
e 4 74
e 4 84
e 4 93
e 4 95
e 4 96
e 5 6
e 5 7
e 5 8
e 5 9
e 5 12
e 5 15
e 5 16
e 5 17
e 5 21
e 5 24
e 5 26
e 5 31
e 5 32
e 5 33
e 5 35
e 5 47
e 5 49
e 5 54
e 5 57
e 5 67
e 5 73
e 5 91
e 5 94
e 6 8
e 6 9
e 6 12
e 6 18
e 6 26
e 6 28
e 6 30
e 6 41
e 6 42
e 6 44
e 6 46
e 6 51
e 6 58
e 6 60
e 6 61
e 6 62
e 6 72
e 6 74
e 6 75
e 6 83
e 6 88
e 7 9
e 7 10
e 7 19
e 7 23
e 7 27
e 7 37
e 7 42
e 7 44
e 7 53
e 7 62
e 7 65
e 7 66
e 7 69
e 7 73
e 7 78
e 7 80
e 7 85
e 7 89
e 7 94
e 7 99
e 8 9
e 8 11
e 8 13
e 8 16
e 8 20
e 8 21
e 8 24
e 8 28
e 8 33
e 8 34
e 8 43
e 8 49
e 8 56
e 8 65
e 8 70
e 8 72
e 8 84
e 9 15
e 9 16
e 9 17
e 9 22
e 9 36
e 9 40
e 9 45
e 9 61
e 9 71
e 9 73
e 9 76
e 9 79
e 9 81
e 9 85
e 10 13
e 10 14
e 10 16
e 10 25
e 10 32
e 10 38
e 10 42
e 10 43
e 10 50
e 10 60
e 10 74
e 10 77
e 10 78
e 10 82
e 10 97
e 10 99
e 11 14
e 11 16
e 11 20
e 11 29
e 11 32
e 11 35
e 11 38
e 11 46
e 11 49
e 11 55
e 11 56
e 11 57
e 11 71
e 11 73
e 11 75
e 11 83
e 11 99
e 12 13
e 12 18
e 12 21
e 12 22
e 12 24
e 12 28
e 12 42
e 12 47
e 12 50
e 12 61
e 12 71
e 12 74
e 12 80
e 12 83
e 13 15
e 13 20
e 13 25
e 13 26
e 13 29
e 13 39
e 13 44
e 13 54
e 13 59
e 13 66
e 13 78
e 13 86
e 13 88
e 13 92
e 13 98
e 14 17
e 14 22
e 14 33
e 14 37
e 14 40
e 14 43
e 14 44
e 14 48
e 14 63
e 14 64
e 14 69
e 14 75
e 14 82
e 14 85
e 14 94
e 14 99
e 15 16
e 15 26
e 15 34
e 15 38
e 15 39
e 15 51
e 15 69
e 15 77
e 15 89
e 15 93
e 15 97
e 16 29
e 16 34
e 16 35
e 16 37
e 16 45
e 16 55
e 16 58
e 16 63
e 16 70
e 16 87
e 16 93
e 17 21
e 17 22
e 17 25
e 17 38
e 17 39
e 17 47
e 17 49
e 17 59
e 17 78
e 17 79
e 17 82
e 18 25
e 18 29
e 18 30
e 18 46
e 18 73
e 18 78
e 18 79
e 18 83
e 18 86
e 18 97
e 19 23
e 19 25
e 19 28
e 19 33
e 19 61
e 19 71
e 19 72
e 19 82
e 19 95
e 20 24
e 20 35
e 20 48
e 20 50
e 20 65
e 20 74
e 20 79
e 20 92
e 20 94
e 21 24
e 21 26
e 21 32
e 21 56
e 21 60
e 21 68
e 21 79
e 21 80
e 21 81
e 22 23
e 22 27
e 22 30
e 22 35
e 22 42
e 22 59
e 22 82
e 22 96
e 23 46
e 23 54
e 23 57
e 23 81
e 23 89
e 24 40
e 24 52
e 24 53
e 24 59
e 24 77
e 24 91
e 25 76
e 25 80
e 25 83
e 25 87
e 25 96
e 25 97
e 26 58
e 26 77
e 26 84
e 26 97
e 27 36
e 27 51
e 27 66
e 27 86
e 28 30
e 28 37
e 28 45
e 28 58
e 29 35
e 29 76
e 29 92
e 29 95
e 29 96
e 30 43
e 30 45
e 30 47
e 30 63
e 30 85
e 31 38
e 31 41
e 31 58
e 31 59
e 31 64
e 31 86
e 31 87
e 32 37
e 32 52
e 32 85
e 32 87
e 32 88
e 33 53
e 33 69
e 33 84
e 33 91
e 34 39
e 34 43
e 34 98
e 35 99
e 35 100
e 36 38
e 36 67
e 36 100
e 37 67
e 37 70
e 38 93
e 38 98
e 39 52
e 39 56
e 39 75
e 39 81
e 40 60
e 40 75
e 40 76
e 41 53
e 41 60
e 41 71
e 41 81
e 42 51
e 42 61
e 42 100
e 43 48
e 44 45
e 44 76
e 45 49
e 45 62
e 46 50
e 46 52
e 47 64
e 47 80
e 48 69
e 48 77
e 49 50
e 49 100
e 50 64
e 50 70
e 51 68
e 51 92
e 52 66
e 52 90
e 53 90
e 53 92
e 54 67
e 54 68
e 55 88
e 57 62
e 61 63
e 62 65
e 63 90
e 64 87
e 65 84
e 66 89
e 67 90
e 68 70
e 69 100
e 70 88
e 71 98
n 26 5
n 27 2
n 46 5
n 53 4
n 71 2
n 78 3
n 86 2
n 88 1
n 90 4
n 93 1
